========================================================== 
File name: C:\DEGR\assets\definitions\MSRCPSP_Gen\200_20_64_5_D.def
Creation date: Wed May 03 10:46:05 CEST 2023
Website: http://imopse.ii.pwr.edu.pl/ 
Reference: 
Myszkowski P. B., Skowronski M. E., Olech L., Oslizlo K., 
Hybrid Ant Colony Optimization in solving Multi-Skill Resource-Constrained Project Scheduling Problem, 
Soft Computing, DOI: DOI 10.1007/s00500-014-1455-x 
========================================================== 
General characteristics: 
Tasks: 200
Resources: 20
Precedence relations: 64
Number of skill types: 5
========================================================== 
ResourceID 	 Salary 	 Skills 
1	 	 	19.4	 	 Q3: 1 	 
2	 	 	91.0	 	 Q0: 0 	  Q4: 0 	 
3	 	 	17.9	 	 Q4: 2 	  Q3: 2 	  Q1: 3 	 
4	 	 	16.7	 	 Q2: 2 	  Q3: 1 	  Q4: 0 	  Q0: 2 	 
5	 	 	83.9	 	 Q2: 3 	  Q1: 1 	 
6	 	 	31.1	 	 Q3: 3 	  Q4: 2 	  Q0: 0 	 
7	 	 	92.7	 	 Q0: 3 	  Q2: 0 	  Q1: 2 	 
8	 	 	62.7	 	 Q3: 2 	 
9	 	 	13.4	 	 Q1: 0 	 
10	 	 	44.8	 	 Q0: 0 	  Q2: 0 	  Q4: 0 	 
11	 	 	91.2	 	 Q0: 0 	  Q2: 3 	  Q4: 0 	  Q3: 3 	 
12	 	 	83.8	 	 Q1: 2 	  Q4: 0 	  Q2: 0 	  Q0: 0 	 
13	 	 	48.0	 	 Q3: 2 	  Q0: 3 	  Q4: 0 	 
14	 	 	17.8	 	 Q2: 1 	  Q3: 0 	 
15	 	 	95.7	 	 Q3: 2 	  Q0: 2 	 
16	 	 	44.8	 	 Q4: 0 	  Q0: 3 	  Q3: 1 	  Q1: 0 	 
17	 	 	24.6	 	 Q3: 3 	 
18	 	 	38.4	 	 Q3: 3 	  Q1: 0 	  Q4: 3 	  Q2: 3 	 
19	 	 	72.2	 	 Q4: 0 	 
20	 	 	40.0	 	 Q0: 2 	 
========================================================== 
TaskID 	 Duration 	 Skill 	 Predecessor IDs 
1	31	Q1:	3
2	40	Q1:	3
3	36	Q2:	0
4	13	Q1:	3
5	14	Q4:	0
6	9	Q1:	3
7	26	Q2:	2
8	19	Q1:	0
9	20	Q0:	0
10	32	Q3:	0
11	10	Q1:	0
12	24	Q2:	1
13	26	Q3:	1	1
14	40	Q0:	0
15	11	Q2:	2
16	12	Q4:	3
17	10	Q4:	3
18	9	Q0:	3
19	36	Q2:	2
20	21	Q0:	2
21	21	Q4:	0
22	39	Q0:	0
23	29	Q0:	2
24	15	Q0:	3
25	20	Q0:	2
26	30	Q1:	0
27	27	Q2:	2
28	17	Q3:	3
29	24	Q4:	3
30	13	Q4:	3
31	28	Q0:	0
32	31	Q2:	3
33	25	Q1:	3
34	33	Q2:	3	1
35	20	Q1:	3
36	21	Q4:	2	21
37	15	Q2:	0
38	36	Q1:	0
39	20	Q2:	2
40	28	Q2:	1
41	16	Q3:	3
42	34	Q0:	0
43	40	Q3:	1
44	15	Q0:	0
45	22	Q3:	1
46	19	Q3:	3
47	9	Q3:	0
48	29	Q4:	2
49	36	Q0:	3
50	14	Q2:	1	27
51	24	Q3:	1	13	30
52	30	Q1:	1
53	10	Q0:	2
54	12	Q3:	2
55	36	Q0:	0
56	27	Q0:	3
57	16	Q3:	1
58	36	Q2:	2
59	39	Q1:	2	12
60	12	Q0:	2
61	21	Q1:	2
62	24	Q1:	2
63	35	Q2:	0
64	15	Q2:	3
65	36	Q3:	1
66	18	Q3:	1
67	29	Q4:	2	23
68	21	Q1:	0	21
69	32	Q3:	0
70	37	Q2:	2
71	10	Q2:	3
72	31	Q1:	3
73	24	Q3:	1	35
74	37	Q0:	0
75	36	Q0:	2
76	31	Q1:	1
77	18	Q1:	3
78	33	Q0:	0
79	27	Q4:	3
80	33	Q0:	3
81	23	Q3:	0
82	14	Q2:	2
83	26	Q3:	0
84	28	Q3:	0	73
85	18	Q3:	0	8
86	16	Q3:	1
87	35	Q4:	2
88	15	Q0:	2
89	37	Q4:	0	73
90	24	Q3:	0
91	27	Q1:	2
92	28	Q2:	3	82	78
93	9	Q3:	2
94	19	Q3:	3
95	15	Q1:	1
96	33	Q1:	2
97	38	Q2:	2
98	12	Q3:	3
99	36	Q2:	0
100	28	Q1:	1
101	27	Q1:	2	66
102	9	Q0:	3
103	13	Q1:	3
104	16	Q4:	2
105	27	Q2:	0
106	27	Q1:	1
107	20	Q2:	0	102
108	20	Q0:	2
109	39	Q1:	1
110	37	Q2:	1
111	19	Q2:	3
112	10	Q1:	2
113	33	Q0:	0	49
114	17	Q3:	0
115	40	Q3:	0
116	10	Q3:	1
117	25	Q2:	0
118	26	Q2:	1
119	40	Q4:	0
120	23	Q1:	1	66
121	37	Q3:	0	91
122	10	Q1:	0	111
123	15	Q1:	2
124	16	Q1:	0
125	19	Q1:	3
126	31	Q1:	0
127	17	Q2:	3
128	12	Q1:	2	74	90	5
129	23	Q2:	3
130	32	Q4:	3	9
131	11	Q3:	1
132	25	Q2:	2	106
133	17	Q0:	0	14	17
134	9	Q0:	3
135	25	Q0:	0
136	21	Q0:	2
137	12	Q2:	3	17
138	32	Q1:	2
139	27	Q4:	3	100
140	32	Q0:	2
141	32	Q1:	1
142	36	Q1:	3	111
143	27	Q2:	3
144	30	Q4:	0	141
145	15	Q1:	2
146	31	Q3:	3
147	40	Q4:	3	16	76
148	28	Q4:	2	61
149	39	Q2:	3	37
150	21	Q4:	0	37
151	30	Q0:	0
152	36	Q3:	0
153	38	Q1:	1	140
154	11	Q1:	0	104
155	14	Q2:	3
156	37	Q3:	3	22	111
157	19	Q0:	2	43
158	14	Q1:	2
159	19	Q3:	3
160	23	Q4:	3
161	27	Q2:	2
162	18	Q4:	3
163	16	Q2:	1
164	31	Q1:	0	28	102
165	21	Q3:	0	145
166	23	Q4:	0	104
167	20	Q4:	0
168	38	Q1:	2
169	12	Q1:	3
170	24	Q1:	1	66
171	16	Q1:	1
172	24	Q0:	3
173	23	Q1:	0
174	28	Q3:	0
175	17	Q3:	1	70	69	58
176	38	Q3:	3	99
177	36	Q4:	0
178	20	Q4:	2	157
179	16	Q3:	2	151
180	9	Q1:	2	122
181	19	Q1:	1	53
182	10	Q1:	3
183	9	Q3:	2
184	20	Q3:	2	181	137
185	20	Q4:	2	131
186	15	Q1:	3	1	94
187	17	Q3:	3	120
188	34	Q2:	0
189	35	Q0:	0
190	10	Q2:	0
191	21	Q4:	2
192	19	Q0:	3
193	22	Q0:	2
194	11	Q4:	2
195	19	Q2:	1
196	21	Q1:	0	106
197	29	Q2:	1	8	137
198	25	Q3:	0
199	24	Q3:	3
200	19	Q0:	3
========================================================== 